Route #1: 20 25 23 13 30 41 63 2 11
Route #2: 29 15 12 47 6 55 27 53 44
Route #3: 32 19 50 34 3 65 62 22 68
Route #4: 35 48 5 61 56 66 28 8 59
Route #5: 24 31 7 52 16 4 45 67
Route #6: 58 43 26 17 40 9 60 42 21 14
Route #7: 54 10 36 46 69 39
Route #8: 64 33 18 49 51
Route #9: 38 37 57
cost 1449
